(declare-const counter Int)
(declare-const term_to_project_onto3_integralized Int)
(declare-const |v'| Int)
(declare-const y Int)
(declare-const tmp Int)
(declare-const x Int)
(declare-const X Int)
(declare-const uninterp Int)
(declare-const yx Int)
(declare-const term_to_project_onto2_integralized Int)
(declare-const xy Int)
(declare-const |counter'| Int)
(declare-const |x'| Int)
(declare-const phi_v Int)
(declare-const uninterp0 Int)
(declare-const term_to_project_onto4_integralized Int)
(declare-const term_to_project_onto0_integralized Int)
(declare-const phi_y Int)
(declare-const |yx'| Int)
(declare-const |xy'| Int)
(declare-const term_to_project_onto1_integralized Int)
(declare-const |y'| Int)
(declare-const |tmp'| Int)
(declare-const term_to_project_onto_integralized Int)
(declare-const Y Int)
(declare-const term_to_project_onto5_integralized Int)
(declare-const v Int)
(assert (and (<= (- y) 0) (<= (- x) 0) (<= (- counter) 0)
               (= (+ counter (- x)) 0) (<= (+ counter -9) 0)
               (= (+ (- v) (- X) (* 2 Y) (* 2 uninterp) (* -2 uninterp0)) 0)
               (<= (+ (- X) x) 0)
               (or (and (<= (- v) 0) (= (+ (- phi_y) y 1) 0)
                          (= (+ (- phi_v) v (* -2 X) (* 2 Y)) 0))
                     (and (<= (+ v 1) 0) (= (+ (- phi_y) y) 0)
                            (= (+ (- phi_v) v (* 2 Y)) 0)))
               (= (+ |tmp'| (- counter)) 0) (= (+ |yx'| (- uninterp)) 0)
               (= (+ |xy'| (- uninterp0)) 0) (= (+ |v'| (- phi_v)) 0)
               (= (+ |y'| (- phi_y)) 0) (= (+ |x'| (- x) -1) 0)
               (= (+ |counter'| (- counter) -1) 0) (<= (- uninterp0) 0)
               (<= (+ uninterp (- (* 9 Y))) 0)
               (= (+ term_to_project_onto5_integralized
                       (- (+ |counter'| (- counter)))) 0)
               (= (+ term_to_project_onto4_integralized (- (+ |x'| (- x)))) 0)
               (= (+ term_to_project_onto3_integralized (- (+ |y'| (- y)))) 0)
               (= (+ term_to_project_onto2_integralized (- (+ |v'| (- v)))) 0)
               (= (+ term_to_project_onto1_integralized (- (+ |xy'| (- xy)))) 0)
               (= (+ term_to_project_onto0_integralized (- (+ |yx'| (- yx)))) 0)
               (= (+ term_to_project_onto_integralized (- (+ |tmp'| (- tmp)))) 0)))
(check-sat)